NAME : in_house_9_16
TYPE : TSP
DIMENSION : 9
EDGE_WEIGHT_TYPE : EXPLICIT
EDGE_WEIGHT_FORMAT : UPPER_ROW
COMMENT : INVERSION_SHIFT=8
EDGE_WEIGHT_SECTION
44
1
24
48
4
43
12
62
47
3
41
30
75
46
9
77
80
2
20
44
35
72
63
67
66
35
49
19
67
48
67
55
42
10
47
5
